n_potions = 66;
alchemy = [5, 4, 1, 4, 1, 4, 5, 2, 5, 3, 1, 5, 1, 2, 1, 2, 5, 3, 4, 4, 1, 4, 2, 3, 2, 5, 5, 4, 3, 4, 4, 4, 2, 4, 2, 2, 1, 1, 2, 4, 2, 2, 3, 2, 3, 4, 2, 4, 4, 1, 2, 1, 5, 4, 3, 5, 5, 5, 5, 3, 4, 3, 1, 3, 4, 1];
n_days = 12;
min_potions = 5;
max_potions = 7;
min_alchemists = 5;
max_alchemists = 35;
prereqs = [|7,1
|8,2
|8,6
|10,5
|11,5
|11,6
|13,8
|13,11
|14,3
|18,10
|19,8
|19,11
|20,9
|21,10
|23,17
|23,18
|24,13
|26,23
|30,9
|32,9
|33,27
|34,17
|35,9
|35,17
|35,18
|37,20
|37,30
|37,35
|39,35
|41,9
|41,17
|41,18
|43,20
|44,16
|46,37
|47,42
|48,34
|49,30
|49,32
|50,43
|51,33
|53,47
|54,50
|55,43
|55,38
|56,51
|57,39
|58,28
|59,55
|63,48
|];
